c clasp version 2.1.1
c Reading from p54.cnf
c Solving...
s SATISFIABLE

c Models        : 1+    
c Time          : 15.307s (Solving: 13.83s 1st Model: 13.78s Unsat: 0.00s)
c CPU Time      : 15.270s
c Choices       : 51948
c Conflicts     : 30259
c Restarts      : 1      (Average: 30259.00 Last: 14253)

c Variables     : 228166 (Eliminated: 71081 Frozen:    0)
c Constraints   : 260121 (Binary: 64.8% Ternary: 34.0% Other:  1.2%)
c Lemmas        : 30259  (Binary:  0.0% Ternary:  0.1% Other: 99.9%)
c   Conflict    : 30259  (Average Length: 347.6) 
c   Loop        : 0      (Average Length: 0.0) 
c   Other       : 0      (Average Length: 0.0)
c   Deleted     : 13457 
